Copyright (C) 2013-2015, Filipe Brandao
Build (method = -2)
  #dp: 64367
  Step-3' Graph: 516 vertices and 32035 arcs (0.19s)
  Step-4' Graph: 507 vertices and 32017 arcs (0.20s)
  #V4/#V3 = 0.98
  #A4/#A3 = 1.00
Ready! (0.20s)
Optimize a model with 787 rows, 32018 columns and 95044 nonzeros
Presolve removed 124 rows and 124 columns
Presolve time: 0.20s
Presolved: 663 rows, 31894 columns, 94135 nonzeros
Variable types: 0 continuous, 31894 integer (19997 binary)
Found heuristic solution: objective 269.0000000
Optimize a model with 663 rows, 31894 columns and 94135 nonzeros
Presolved: 663 rows, 31894 columns, 94135 nonzeros

Root barrier log...

Ordering time: 0.01s

Barrier statistics:
 AA' NZ     : 5.823e+04
 Factor NZ  : 1.308e+05 (roughly 14 MBytes of memory)
 Factor Ops : 3.438e+07 (less than 1 second per iteration)
 Threads    : 1

                  Objective                Residual
Iter       Primal          Dual         Primal    Dual     Compl     Time
   0   1.93416812e+04 -2.64376819e+05  2.70e+05 1.01e-01  3.83e+01     0s
   1   5.55843556e+03 -6.67583513e+04  2.29e+04 8.88e-16  3.95e+00     0s
   2   2.01959494e+03 -2.66361984e+04  4.32e+03 2.63e-02  9.53e-01     0s
   3   1.17083926e+03 -7.72656251e+03  6.18e+02 5.00e-03  2.09e-01     0s
   4   7.53467419e+02 -1.62088862e+03  1.93e+02 7.63e-04  5.69e-02     0s
   5   5.15126559e+02 -6.79270066e+02  8.67e+01 2.25e-04  2.64e-02     0s
   6   4.15964718e+02 -3.14528499e+02  5.08e+01 4.46e-05  1.53e-02     0s
   7   4.04630284e+02 -1.95315263e+02  4.78e+01 1.11e-15  1.27e-02     0s
   8   3.23526505e+02 -1.26811510e+02  2.32e+01 8.88e-16  8.54e-03     0s
   9   2.84824343e+02 -2.99400090e+01  1.50e+01 5.55e-16  5.76e-03     0s
  10   2.59559444e+02  1.63279772e+01  9.95e+00 4.44e-16  4.30e-03     0s
  11   2.55391241e+02  3.12374468e+01  9.19e+00 4.24e-16  3.95e-03     0s
  12   2.44171391e+02  6.67380147e+01  7.38e+00 4.48e-16  3.10e-03     0s
  13   2.31711819e+02  9.30821699e+01  5.33e+00 3.62e-16  2.38e-03     0s
  14   2.14652722e+02  1.25395281e+02  3.10e+00 3.55e-16  1.50e-03     0s
  15   2.03436037e+02  1.38597259e+02  1.89e+00 3.31e-16  1.08e-03     0s
  16   2.01216484e+02  1.54654048e+02  1.69e+00 2.60e-16  7.78e-04     0s
  17   1.97607467e+02  1.59253495e+02  1.43e+00 2.63e-16  6.41e-04     0s
  18   1.92386709e+02  1.62963782e+02  1.01e+00 2.60e-16  4.88e-04     0s
  19   1.88634993e+02  1.64440010e+02  6.76e-01 2.93e-16  3.97e-04     0s
  20   1.87326176e+02  1.68431474e+02  5.31e-01 3.33e-16  3.08e-04     0s
  21   1.85709012e+02  1.70994509e+02  3.57e-01 3.38e-16  2.38e-04     0s
  22   1.85250486e+02  1.72574719e+02  3.06e-01 3.33e-16  2.04e-04     0s
  23   1.85141901e+02  1.73448528e+02  2.91e-01 3.33e-16  1.88e-04     0s
  24   1.84453289e+02  1.75395868e+02  1.97e-01 3.69e-16  1.45e-04     0s
  25   1.84255496e+02  1.75720518e+02  1.81e-01 3.45e-16  1.36e-04     0s
  26   1.84118996e+02  1.76419736e+02  1.68e-01 3.48e-16  1.23e-04     0s
  27   1.84012881e+02  1.77284767e+02  1.59e-01 3.55e-16  1.07e-04     0s
  28   1.83473974e+02  1.78426723e+02  1.08e-01 3.33e-16  8.02e-05     0s
  29   1.83037304e+02  1.79222585e+02  6.74e-02 2.56e-16  6.04e-05     0s
  30   1.82734911e+02  1.79520832e+02  4.37e-02 2.80e-16  5.07e-05     1s
  31   1.82517888e+02  1.80215887e+02  2.94e-02 3.06e-16  3.63e-05     1s
  32   1.82128204e+02  1.80477234e+02  7.02e-03 2.94e-16  2.59e-05     1s
  33   1.81947436e+02  1.80838081e+02  3.47e-03 2.70e-16  1.74e-05     1s
  34   1.81877259e+02  1.81016864e+02  2.49e-03 2.72e-16  1.35e-05     1s
  35   1.81811990e+02  1.81167531e+02  1.69e-03 2.61e-16  1.01e-05     1s
  36   1.81742129e+02  1.81396882e+02  9.34e-04 4.44e-16  5.41e-06     1s
  37   1.81698968e+02  1.81530418e+02  5.09e-04 2.35e-16  2.64e-06     1s
  38   1.81665672e+02  1.81598906e+02  2.16e-04 3.33e-16  1.05e-06     1s
  39   1.81647355e+02  1.81621447e+02  6.68e-05 2.49e-16  4.06e-07     1s
  40   1.81639230e+02  1.81635862e+02  4.36e-06 4.44e-16  5.28e-08     1s
  41   1.81638287e+02  1.81638111e+02  2.26e-08 4.55e-16  2.76e-09     1s
  42   1.81638278e+02  1.81638278e+02  8.95e-13 3.33e-16  2.77e-12     1s
  43   1.81638278e+02  1.81638278e+02  4.46e-12 3.33e-16  2.77e-15     1s

Barrier solved model in 43 iterations and 0.70 seconds
Optimal objective 1.81638278e+02


Root relaxation: objective 1.816383e+02, 1227 iterations, 0.72 seconds

    Nodes    |    Current Node    |     Objective Bounds      |     Work
 Expl Unexpl |  Obj  Depth IntInf | Incumbent    BestBd   Gap | It/Node Time

     0     0  181.63828    0   90  269.00000  181.63828  32.5%     -    1s
H    0     0                     182.0000000  181.63828  0.20%     -    1s

Explored 0 nodes (1720 simplex iterations) in 1.38 seconds
Thread count was 1 (of 4 available processors)

Optimal solution found (tolerance 0.00e+00)
Best objective 1.820000000000e+02, best bound 1.820000000000e+02, gap 0.0%
Preprocessing time: 0.25 seconds
Gurobi run time: 1.38 seconds
Total run time: 1.63 seconds
Objective: 182
Solution:
1 x [i=1, i=236]
1 x [i=2, i=236]
1 x [i=3, i=235]
1 x [i=4, i=233]
2 x [i=4, i=234]
1 x [i=5, i=237]
1 x [i=6, i=231]
1 x [i=7, i=230]
1 x [i=8, i=229]
1 x [i=9, i=236]
2 x [i=10, i=226]
1 x [i=11, i=225]
1 x [i=11, i=227]
2 x [i=12, i=228]
1 x [i=13, i=227]
1 x [i=14, i=261, i=280]
1 x [i=14, i=264, i=278]
1 x [i=15, i=223]
1 x [i=15, i=224]
1 x [i=15, i=260, i=279]
1 x [i=16, i=261, i=277]
1 x [i=16, i=263, i=275]
1 x [i=17, i=261, i=276]
1 x [i=18, i=268, i=268]
1 x [i=19, i=262, i=274]
1 x [i=19, i=267, i=269]
2 x [i=20, i=222]
1 x [i=21, i=221]
1 x [i=22, i=220]
2 x [i=23, i=219]
1 x [i=23, i=220]
1 x [i=24, i=218]
1 x [i=25, i=217]
1 x [i=26, i=215]
1 x [i=27, i=214]
1 x [i=27, i=216]
1 x [i=28, i=253, i=276]
1 x [i=28, i=256, i=273]
1 x [i=28, i=257, i=272]
1 x [i=29, i=213]
1 x [i=30, i=259, i=268]
1 x [i=31, i=212]
1 x [i=32, i=211]
1 x [i=33, i=210]
1 x [i=34, i=210]
1 x [i=35, i=208]
2 x [i=36, i=209]
1 x [i=37, i=207]
2 x [i=38, i=206]
1 x [i=39, i=205]
1 x [i=40, i=204]
1 x [i=41, i=204]
1 x [i=42, i=201]
1 x [i=42, i=202]
1 x [i=43, i=200]
2 x [i=44, i=198]
2 x [i=45, i=196]
1 x [i=45, i=197]
1 x [i=46, i=199]
1 x [i=47, i=194]
1 x [i=47, i=195]
1 x [i=47, i=244, i=266]
2 x [i=48, i=193]
1 x [i=48, i=254, i=257]
1 x [i=49, i=191]
1 x [i=50, i=190]
1 x [i=51, i=191]
1 x [i=52, i=188]
1 x [i=52, i=189]
1 x [i=53, i=187]
1 x [i=54, i=244, i=258]
2 x [i=55, i=186]
1 x [i=55, i=245, i=255]
1 x [i=56, i=185]
1 x [i=57, i=182]
1 x [i=58, i=181]
1 x [i=58, i=183]
1 x [i=59, i=182]
2 x [i=60, i=179]
1 x [i=61, i=181]
1 x [i=62, i=180]
2 x [i=62, i=184]
1 x [i=63, i=177]
1 x [i=63, i=181]
1 x [i=63, i=240, i=255]
1 x [i=64, i=178]
1 x [i=64, i=243, i=249]
1 x [i=65, i=245, i=246]
1 x [i=66, i=176]
1 x [i=67, i=181]
1 x [i=67, i=242, i=247]
2 x [i=68, i=171]
1 x [i=69, i=170]
1 x [i=70, i=168]
1 x [i=71, i=169]
1 x [i=72, i=166]
1 x [i=72, i=167]
1 x [i=73, i=164]
1 x [i=74, i=163]
1 x [i=75, i=165]
1 x [i=76, i=161]
1 x [i=76, i=162]
1 x [i=77, i=161]
1 x [i=78, i=163]
1 x [i=78, i=236]
1 x [i=79, i=159]
1 x [i=79, i=160]
1 x [i=80, i=238, i=241]
1 x [i=81, i=239, i=240]
1 x [i=82, i=158]
1 x [i=83, i=157]
1 x [i=84, i=156]
1 x [i=85, i=155]
1 x [i=86, i=157]
1 x [i=87, i=154]
1 x [i=87, i=232, i=239]
1 x [i=88, i=152]
1 x [i=89, i=153]
1 x [i=89, i=222]
1 x [i=90, i=152]
1 x [i=90, i=209, i=263]
1 x [i=91, i=150]
1 x [i=91, i=151]
1 x [i=92, i=149]
1 x [i=93, i=148]
1 x [i=93, i=203, i=265]
1 x [i=93, i=207, i=262]
1 x [i=94, i=147]
1 x [i=95, i=146]
1 x [i=96, i=144]
1 x [i=97, i=143]
1 x [i=98, i=142]
1 x [i=99, i=139]
1 x [i=100, i=138]
1 x [i=101, i=137]
1 x [i=102, i=136]
1 x [i=103, i=135]
1 x [i=104, i=134]
1 x [i=105, i=133]
1 x [i=106, i=131]
1 x [i=106, i=132]
1 x [i=107, i=129]
1 x [i=108, i=128]
1 x [i=108, i=129]
2 x [i=109, i=127]
1 x [i=110, i=126]
1 x [i=111, i=120]
1 x [i=112, i=119]
1 x [i=112, i=125]
1 x [i=113, i=118]
1 x [i=113, i=121]
1 x [i=113, i=122]
2 x [i=113, i=123]
1 x [i=113, i=124]
1 x [i=114, i=117]
1 x [i=114, i=130]
1 x [i=114, i=173, i=271]
2 x [i=114, i=192, i=252]
1 x [i=115, i=116]
1 x [i=115, i=172, i=270]
1 x [i=140, i=175, i=251]
1 x [i=141, i=175, i=250]
1 x [i=144, i=174, i=248]
1 x [i=145, i=172, i=252]
1 x [i=145, i=173, i=248]
